\ENCODING=ISO-8859-1
\Problem name: ilog.cplex

Minimize
 obj1: 106215 x1 + 90713 x2 + 102059 x3 + 101534 x4 + 95012 x5 + 90241 x6
       + 95041 x7 + 91314 x8 + 96665 x9 + 99134 x10 + 102968 x11 + 99228 x12
       + 105726 x13 + 94071 x14 + 103579 x15 + 101789 x16 + 107267 x17
       + 106794 x18 + 106029 x19 + 99972 x20 + 94131 x21 + 91444 x22
       + 108447 x23 + 97968 x24 + 104543 x25 + 109195 x26 + 92618 x27
       + 99613 x28 + 99147 x29 + 106392 x30 + 93530 x31 + 105277 x32
       + 90308 x33 + 98179 x34 + 90619 x35 + 95595 x36 + 105911 x37
       + 106072 x38 + 102255 x39 + 102663 x40 + 94906 x41 + 94925 x42
       + 105328 x43 + 94194 x44 + 102503 x45 + 92474 x46 + 107779 x47
       + 91604 x48 + 99174 x49 + 92893 x50 + 93473 x51 + 109128 x52 + 99520 x53
       + 104751 x54 + 96031 x55 + 97782 x56 + 94599 x57 + 103305 x58
       + 101077 x59 + 105376 x60 + 101752 x61 + 96106 x62 + 100732 x63
       + 90838 x64 + 107032 x65 + 107618 x66 + 103249 x67 + 107111 x68
       + 99934 x69 + 106936 x70 + 91362 x71 + 109755 x72 + 93016 x73
       + 102267 x74 + 99725 x75 + 92007 x76 + 102260 x77 + 100078 x78
       + 91541 x79 + 92694 x80 + 109480 x81 + 104693 x82 + 92803 x83
       + 101065 x84 + 97792 x85 + 105683 x86 + 109157 x87 + 102583 x88
       + 92736 x89 + 107418 x90 + 109403 x91 + 103728 x92 + 104658 x93
       + 98948 x94 + 105437 x95 + 92969 x96 + 101523 x97 + 101745 x98
       + 104891 x99 + 99737 x100 + 105620 x101 + 107881 x102 + 99749 x103
       + 103609 x104 + 102454 x105 + 91839 x106 + 101912 x107 + 101818 x108
       + 95603 x109 + 105443 x110 + 104984 x111 + 104823 x112 + 97467 x113
       + 107278 x114 + 100461 x115 + 96868 x116 + 92521 x117 + 95488 x118
       + 106088 x119 + 91292 x120 + 108803 x121 + 107721 x122 + 106969 x123
       + 99330 x124 + 91020 x125 + 108456 x126 + 104636 x127 + 93619 x128
       + 91298 x129 + 97374 x130 + 95859 x131 + 94881 x132 + 100154 x133
       + 91579 x134 + 98129 x135 + 99554 x136 + 103619 x137 + 101148 x138
       + 99245 x139 + 90288 x140 + 99368 x141 + 103248 x142 + 95659 x143
       + 99756 x144 + 107735 x145 + 99478 x146 + 91041 x147 + 107403 x148
       + 92514 x149 + 91844 x150 + 104767 x151 + 100964 x152 + 109932 x153
       + 105778 x154 + 93775 x155 + 90376 x156 + 93243 x157 + 92205 x158
       + 100667 x159 + 98143 x160 + 95117 x161 + 94905 x162 + 105910 x163
       + 107255 x164 + 90301 x165 + 94293 x166 + 102684 x167 + 105435 x168
       + 107029 x169 + 94216 x170 + 109140 x171 + 102805 x172 + 107195 x173
       + 104476 x174 + 104778 x175 + 98971 x176 + 92543 x177 + 108546 x178
       + 105127 x179 + 95089 x180 + 106634 x181 + 93292 x182 + 95424 x183
       + 96121 x184 + 93425 x185 + 97619 x186 + 108394 x187 + 100546 x188
       + 104843 x189 + 92784 x190 + 91870 x191 + 108924 x192 + 100271 x193
       + 99344 x194 + 96849 x195 + 101243 x196 + 107434 x197 + 92247 x198
       + 99085 x199 + 106648 x200 + 104623 x201 + 98520 x202 + 105065 x203
       + 96936 x204 + 96726 x205 + 93372 x206 + 96380 x207 + 97719 x208
       + 99513 x209 + 99912 x210 + 90714 x211 + 102230 x212 + 91838 x213
       + 91193 x214 + 100656 x215 + 96582 x216 + 101171 x217 + 92346 x218
       + 105169 x219 + 104618 x220 + 94348 x221 + 105270 x222 + 92773 x223
       + 95560 x224 + 92443 x225 + 108700 x226 + 90371 x227 + 108283 x228
       + 96358 x229 + 102411 x230 + 97133 x231 + 92320 x232 + 98029 x233
       + 105899 x234 + 98959 x235 + 107595 x236 + 101056 x237 + 109114 x238
       + 105804 x239 + 102397 x240 + 102271 x241 + 90846 x242 + 96943 x243
       + 103516 x244 + 91233 x245 + 100105 x246 + 101330 x247 + 109466 x248
       + 91158 x249 + 103122 x250 + 109040 x251 + 94854 x252 + 105179 x253
       + 104604 x254 + 102645 x255 + 108371 x256 + 106574 x257 + 98775 x258
       + 100964 x259 + 99978 x260 + 105923 x261 + 103961 x262 + 92210 x263
       + 98904 x264 + 96172 x265 + 93499 x266 + 94085 x267 + 90200 x268
       + 97782 x269 + 95219 x270 + 96321 x271 + 90888 x272 + 104284 x273
       + 106979 x274 + 104711 x275 + 99737 x276 + 102323 x277 + 91477 x278
       + 94674 x279 + 98283 x280 + 109681 x281 + 90042 x282 + 97167 x283
       + 94987 x284 + 99765 x285 + 92116 x286 + 100054 x287 + 109270 x288
       + 101727 x289 + 94843 x290 + 94015 x291 + 107630 x292 + 101609 x293
       + 105468 x294 + 103650 x295 + 90217 x296 + 101851 x297 + 98170 x298
       + 101643 x299 + 102907 x300 + 97349 x301 + 102318 x302 + 92943 x303
       + 94389 x304 + 99390 x305 + 95953 x306 + 97249 x307 + 104162 x308
       + 94946 x309 + 99235 x310 + 107986 x311 + 105445 x312 + 101576 x313
       + 102854 x314 + 102073 x315 + 91138 x316 + 103918 x317 + 101744 x318
       + 101146 x319 + 97707 x320 + 91630 x321 + 108094 x322 + 96164 x323
       + 107714 x324 + 109553 x325 + 104372 x326 + 95850 x327 + 92797 x328
       + 91615 x329 + 103884 x330 + 109031 x331 + 102956 x332 + 102299 x333
       + 94469 x334 + 96157 x335 + 101457 x336 + 92523 x337 + 104747 x338
       + 91054 x339 + 103750 x340 + 90384 x341 + 91707 x342 + 100407 x343
       + 103504 x344 + 91443 x345 + 103455 x346 + 95513 x347 + 99184 x348
       + 108115 x349 + 101575 x350 + 98523 x351 + 90572 x352 + 103195 x353
       + 93831 x354 + 93690 x355 + 96191 x356 + 108678 x357 + 109842 x358
       + 103064 x359 + 109824 x360 + 107133 x361 + 95269 x362 + 109924 x363
       + 109088 x364 + 91844 x365 + 99810 x366 + 95532 x367 + 94153 x368
       + 95055 x369 + 109391 x370 + 100119 x371 + 102923 x372 + 90918 x373
       + 91731 x374 + 104982 x375 + 94619 x376 + 107293 x377 + 100126 x378
       + 92658 x379 + 104902 x380 + 90903 x381 + 106366 x382 + 97190 x383
       + 98167 x384 + 93148 x385 + 103235 x386 + 101527 x387 + 96165 x388
       + 94878 x389 + 100906 x390 + 94890 x391 + 90858 x392 + 106324 x393
       + 103893 x394 + 101015 x395 + 104582 x396 + 101794 x397 + 108193 x398
       + 102014 x399 + 96390 x400 + 97841 x401 + 101903 x402 + 91936 x403
       + 109892 x404 + 98326 x405 + 106792 x406 + 99175 x407 + 94930 x408
       + 90115 x409 + 103206 x410 + 97482 x411 + 93130 x412 + 99112 x413
       + 96149 x414 + 101630 x415 + 95653 x416 + 107919 x417 + 106517 x418
       + 95661 x419 + 100415 x420 + 95561 x421 + 106923 x422 + 98923 x423
       + 100271 x424 + 96196 x425 + 102729 x426 + 91528 x427 + 102450 x428
       + 102154 x429 + 105511 x430 + 99261 x431 + 107358 x432 + 106001 x433
       + 93538 x434 + 90085 x435 + 105029 x436 + 102549 x437 + 90592 x438
       + 93113 x439 + 109128 x440 + 93806 x441 + 105094 x442 + 101661 x443
       + 95876 x444 + 106604 x445 + 93095 x446 + 108234 x447 + 102240 x448
       + 104069 x449 + 103762 x450 + 108577 x451 + 101501 x452 + 96639 x453
       + 93853 x454 + 104256 x455 + 102465 x456 + 103530 x457 + 91111 x458
       + 96230 x459 + 102327 x460 + 101330 x461 + 105589 x462 + 95487 x463
       + 102628 x464 + 102842 x465 + 92652 x466 + 101068 x467 + 92716 x468
       + 96346 x469 + 101694 x470 + 90636 x471 + 95824 x472 + 103114 x473
       + 100593 x474 + 94275 x475 + 99097 x476 + 99325 x477 + 107509 x478
       + 98284 x479 + 90826 x480 + 105656 x481 + 91739 x482 + 94814 x483
       + 91949 x484 + 91668 x485 + 102560 x486 + 103303 x487 + 91914 x488
       + 102038 x489 + 105259 x490 + 105216 x491 + 93548 x492 + 98328 x493
       + 100496 x494 + 96169 x495 + 107097 x496 + 92516 x497 + 95169 x498
       + 93156 x499 + 99106 x500 + 90497 x501 + 95655 x502 + 96561 x503
       + 100761 x504 + 91077 x505 + 108432 x506 + 104229 x507 + 95523 x508
       + 101348 x509 + 97048 x510 + 96577 x511 + 95983 x512 + 91882 x513
       + 98961 x514 + 109514 x515 + 102240 x516 + 93298 x517 + 100967 x518
       + 95438 x519 + 107046 x520 + 109554 x521 + 107695 x522 + 101631 x523
       + 96629 x524 + 92683 x525 + 94118 x526 + 90100 x527 + 90313 x528
       + 108737 x529 + 90048 x530 + 103220 x531 + 106921 x532 + 105320 x533
       + 102277 x534 + 105524 x535 + 101438 x536 + 107395 x537 + 98308 x538
       + 103541 x539 + 101530 x540 + 90241 x541 + 103291 x542 + 91568 x543
       + 103910 x544 + 108567 x545 + 91174 x546 + 98475 x547 + 108278 x548
       + 109580 x549 + 98105 x550 + 90764 x551 + 97666 x552 + 104399 x553
       + 99860 x554 + 105514 x555 + 92087 x556 + 99545 x557 + 98645 x558
       + 101405 x559 + 95369 x560 + 95065 x561 + 91268 x562 + 92908 x563
       + 108947 x564 + 93311 x565 + 99599 x566 + 91558 x567 + 90940 x568
       + 99384 x569 + 99550 x570 + 91076 x571 + 99770 x572 + 95957 x573
       + 97284 x574 + 97690 x575 + 109448 x576 + 107588 x577 + 109562 x578
       + 92177 x579 + 97078 x580 + 92608 x581 + 108852 x582 + 95916 x583
       + 102229 x584 + 94286 x585 + 93269 x586 + 99728 x587 + 102511 x588
       + 107200 x589 + 96390 x590 + 101256 x591 + 100068 x592 + 109623 x593
       + 102661 x594 + 104389 x595 + 109593 x596 + 98218 x597 + 100383 x598
       + 102468 x599 + 276684 x600 + 413174 x601 + 385799 x602 + 435227 x603
       + 422093 x604 + 369407 x605 + 407490 x606 + 402834 x607 + 425785 x608
       + 432754 x609 + 432153 x610 + 399941 x611 + 401387 x612 + 392718 x613
       + 396218 x614 + 434424 x615 + 428352 x616 + 408695 x617 + 392358 x618
       + 417444 x619 + 376798 x620 + 379874 x621 + 401161 x622 + 424711 x623
       + 388238 x624 + 363482 x625 + 430240 x626 + 365157 x627 + 407651 x628
       + 430636 x629 + 370798 x630 + 361982 x631 + 387249 x632 + 372316 x633
       + 399224 x634 + 367969 x635 + 423645 x636 + 418621 x637 + 376399 x638
       + 401426 x639 + 438925 x640 + 412725 x641 + 429936 x642 + 421058 x643
       + 392461 x644 + 366616 x645 + 424690 x646 + 377532 x647 + 414154 x648
       + 418932 x649 + 374423 x650 + 386460 x651 + 401090 x652 + 435877 x653
       + 382606 x654 + 421947 x655 + 438450 x656 + 364446 x657 + 382915 x658
       + 431842 x659 + 237085 x660
Subject To
 c1:   x28 + x31 - x40 - x44 + x46 - x49 + x52 + x53 + x57  = 0
 c2:   x88 + x91 - x100 - x104 + x106 - x109 + x112 + x113 + x117  = 0
 c3:   x148 + x151 - x160 - x164 + x166 - x169 + x172 + x173 + x177  = 0
 c4:   x208 + x211 - x220 - x224 + x226 - x229 + x232 + x233 + x237  = 0
 c5:   x268 + x271 - x280 - x284 + x286 - x289 + x292 + x293 + x297  = 0
 c6:   x328 + x331 - x340 - x344 + x346 - x349 + x352 + x353 + x357  = 0
 c7:   x388 + x391 - x400 - x404 + x406 - x409 + x412 + x413 + x417  = 0
 c8:   x448 + x451 - x460 - x464 + x466 - x469 + x472 + x473 + x477  = 0
 c9:   x508 + x511 - x520 - x524 + x526 - x529 + x532 + x533 + x537  = 0
 c10:  x568 + x571 - x580 - x584 + x586 - x589 + x592 + x593 + x597  = 0
 c11:  x7 + x9 - x16 + x20 - x48 - x54  = 0
 c12:  x67 + x69 - x76 + x80 - x108 - x114  = 0
 c13:  x127 + x129 - x136 + x140 - x168 - x174  = 0
 c14:  x187 + x189 - x196 + x200 - x228 - x234  = -1
 c15:  x247 + x249 - x256 + x260 - x288 - x294  = -1
 c16:  x307 + x309 - x316 + x320 - x348 - x354  = 0
 c17:  x367 + x369 - x376 + x380 - x408 - x414  = 0
 c18:  x427 + x429 - x436 + x440 - x468 - x474  = 0
 c19:  x487 + x489 - x496 + x500 - x528 - x534  = -1
 c20:  x547 + x549 - x556 + x560 - x588 - x594  = 0
 c21:  x4 - x9 - x15 + x16 - x19 + x23 - x28 - x33 + x34 + x50 + x51 - x59
       - x60  = 0
 c22:  x64 - x69 - x75 + x76 - x79 + x83 - x88 - x93 + x94 + x110 + x111 - x119
       - x120  = 0
 c23:  x124 - x129 - x135 + x136 - x139 + x143 - x148 - x153 + x154 + x170
       + x171 - x179 - x180  = 0
 c24:  x184 - x189 - x195 + x196 - x199 + x203 - x208 - x213 + x214 + x230
       + x231 - x239 - x240  = 1
 c25:  x244 - x249 - x255 + x256 - x259 + x263 - x268 - x273 + x274 + x290
       + x291 - x299 - x300  = 0
 c26:  x304 - x309 - x315 + x316 - x319 + x323 - x328 - x333 + x334 + x350
       + x351 - x359 - x360  = 0
 c27:  x364 - x369 - x375 + x376 - x379 + x383 - x388 - x393 + x394 + x410
       + x411 - x419 - x420  = 0
 c28:  x424 - x429 - x435 + x436 - x439 + x443 - x448 - x453 + x454 + x470
       + x471 - x479 - x480  = 0
 c29:  x484 - x489 - x495 + x496 - x499 + x503 - x508 - x513 + x514 + x530
       + x531 - x539 - x540  = 0
 c30:  x544 - x549 - x555 + x556 - x559 + x563 - x568 - x573 + x574 + x590
       + x591 - x599 - x600  = 0
 c31:  x12 + x13 - x43 + x45  = 0
 c32:  x72 + x73 - x103 + x105  = 0
 c33:  x132 + x133 - x163 + x165  = -1
 c34:  x192 + x193 - x223 + x225  = 0
 c35:  x252 + x253 - x283 + x285  = 0
 c36:  x312 + x313 - x343 + x345  = 0
 c37:  x372 + x373 - x403 + x405  = 0
 c38:  x432 + x433 - x463 + x465  = 0
 c39:  x492 + x493 - x523 + x525  = 0
 c40:  x552 + x553 - x583 + x585  = 1
 c41:  - x3 - x8 + x29 - x31 - x34 + x35 - x41 + x48  = 0
 c42:  - x63 - x68 + x89 - x91 - x94 + x95 - x101 + x108  = 0
 c43:  - x123 - x128 + x149 - x151 - x154 + x155 - x161 + x168  = 0
 c44:  - x183 - x188 + x209 - x211 - x214 + x215 - x221 + x228  = 0
 c45:  - x243 - x248 + x269 - x271 - x274 + x275 - x281 + x288  = 0
 c46:  - x303 - x308 + x329 - x331 - x334 + x335 - x341 + x348  = 1
 c47:  - x363 - x368 + x389 - x391 - x394 + x395 - x401 + x408  = -1
 c48:  - x423 - x428 + x449 - x451 - x454 + x455 - x461 + x468  = 0
 c49:  - x483 - x488 + x509 - x511 - x514 + x515 - x521 + x528  = 0
 c50:  - x543 - x548 + x569 - x571 - x574 + x575 - x581 + x588  = 0
 c51:  x3 - x11 - x32 + x49 + x55  = 0
 c52:  x63 - x71 - x92 + x109 + x115  = 0
 c53:  x123 - x131 - x152 + x169 + x175  = 0
 c54:  x183 - x191 - x212 + x229 + x235  = 0
 c55:  x243 - x251 - x272 + x289 + x295  = 0
 c56:  x303 - x311 - x332 + x349 + x355  = 0
 c57:  x363 - x371 - x392 + x409 + x415  = 0
 c58:  x423 - x431 - x452 + x469 + x475  = 0
 c59:  x483 - x491 - x512 + x529 + x535  = 0
 c60:  x543 - x551 - x572 + x589 + x595  = 0
 c61:  x10 - x22 + x27 + x32 + x37 - x51  = 0
 c62:  x70 - x82 + x87 + x92 + x97 - x111  = 0
 c63:  x130 - x142 + x147 + x152 + x157 - x171  = 0
 c64:  x190 - x202 + x207 + x212 + x217 - x231  = 0
 c65:  x250 - x262 + x267 + x272 + x277 - x291  = 0
 c66:  x310 - x322 + x327 + x332 + x337 - x351  = 0
 c67:  x370 - x382 + x387 + x392 + x397 - x411  = 0
 c68:  x430 - x442 + x447 + x452 + x457 - x471  = 0
 c69:  x490 - x502 + x507 + x512 + x517 - x531  = 0
 c70:  x550 - x562 + x567 + x572 + x577 - x591  = 0
 c71:  x1 + x2 + x8 - x35 - x36 - x37 + x44 - x46 + x47 - x58  = 0
 c72:  x61 + x62 + x68 - x95 - x96 - x97 + x104 - x106 + x107 - x118  = 0
 c73:  x121 + x122 + x128 - x155 - x156 - x157 + x164 - x166 + x167 - x178  = 0
 c74:  x181 + x182 + x188 - x215 - x216 - x217 + x224 - x226 + x227 - x238  = 0
 c75:  x241 + x242 + x248 - x275 - x276 - x277 + x284 - x286 + x287 - x298  = 0
 c76:  x301 + x302 + x308 - x335 - x336 - x337 + x344 - x346 + x347 - x358  = 0
 c77:  x361 + x362 + x368 - x395 - x396 - x397 + x404 - x406 + x407 - x418  = 0
 c78:  x421 + x422 + x428 - x455 - x456 - x457 + x464 - x466 + x467 - x478  = 0
 c79:  x481 + x482 + x488 - x515 - x516 - x517 + x524 - x526 + x527 - x538  = 0
 c80:  x541 + x542 + x548 - x575 - x576 - x577 + x584 - x586 + x587 - x598  = 0
 c81:  - x1 + x5 + x6 - x10 - x14 - x20 - x23 + x33 + x38 - x52  = 0
 c82:  - x61 + x65 + x66 - x70 - x74 - x80 - x83 + x93 + x98 - x112  = 0
 c83:  - x121 + x125 + x126 - x130 - x134 - x140 - x143 + x153 + x158 - x172
        = 0
 c84:  - x181 + x185 + x186 - x190 - x194 - x200 - x203 + x213 + x218 - x232
        = 0
 c85:  - x241 + x245 + x246 - x250 - x254 - x260 - x263 + x273 + x278 - x292
        = 0
 c86:  - x301 + x305 + x306 - x310 - x314 - x320 - x323 + x333 + x338 - x352
        = 0
 c87:  - x361 + x365 + x366 - x370 - x374 - x380 - x383 + x393 + x398 - x412
        = 0
 c88:  - x421 + x425 + x426 - x430 - x434 - x440 - x443 + x453 + x458 - x472
        = 0
 c89:  - x481 + x485 + x486 - x490 - x494 - x500 - x503 + x513 + x518 - x532
        = 0
 c90:  - x541 + x545 + x546 - x550 - x554 - x560 - x563 + x573 + x578 - x592
        = 0
 c91:  - x13 + x14 - x17 + x22 - x25 + x40 - x42 - x50 + x58  = 1
 c92:  - x73 + x74 - x77 + x82 - x85 + x100 - x102 - x110 + x118  = 0
 c93:  - x133 + x134 - x137 + x142 - x145 + x160 - x162 - x170 + x178  = 0
 c94:  - x193 + x194 - x197 + x202 - x205 + x220 - x222 - x230 + x238  = 0
 c95:  - x253 + x254 - x257 + x262 - x265 + x280 - x282 - x290 + x298  = 0
 c96:  - x313 + x314 - x317 + x322 - x325 + x340 - x342 - x350 + x358  = 0
 c97:  - x373 + x374 - x377 + x382 - x385 + x400 - x402 - x410 + x418  = 0
 c98:  - x433 + x434 - x437 + x442 - x445 + x460 - x462 - x470 + x478  = 0
 c99:  - x493 + x494 - x497 + x502 - x505 + x520 - x522 - x530 + x538  = 0
 c100: - x553 + x554 - x557 + x562 - x565 + x580 - x582 - x590 + x598  = -1
 c101: x19 + x21 - x24 - x27 - x38 - x39 - x55  = 0
 c102: x79 + x81 - x84 - x87 - x98 - x99 - x115  = 0
 c103: x139 + x141 - x144 - x147 - x158 - x159 - x175  = 0
 c104: x199 + x201 - x204 - x207 - x218 - x219 - x235  = 0
 c105: x259 + x261 - x264 - x267 - x278 - x279 - x295  = 0
 c106: x319 + x321 - x324 - x327 - x338 - x339 - x355  = 0
 c107: x379 + x381 - x384 - x387 - x398 - x399 - x415  = 0
 c108: x439 + x441 - x444 - x447 - x458 - x459 - x475  = 0
 c109: x499 + x501 - x504 - x507 - x518 - x519 - x535  = 0
 c110: x559 + x561 - x564 - x567 - x578 - x579 - x595  = 0
 c111: x18 - x21 - x26 + x30 + x42 - x45 - x57 + x59  = 0
 c112: x78 - x81 - x86 + x90 + x102 - x105 - x117 + x119  = -1
 c113: x138 - x141 - x146 + x150 + x162 - x165 - x177 + x179  = 0
 c114: x198 - x201 - x206 + x210 + x222 - x225 - x237 + x239  = 0
 c115: x258 - x261 - x266 + x270 + x282 - x285 - x297 + x299  = 1
 c116: x318 - x321 - x326 + x330 + x342 - x345 - x357 + x359  = 0
 c117: x378 - x381 - x386 + x390 + x402 - x405 - x417 + x419  = 0
 c118: x438 - x441 - x446 + x450 + x462 - x465 - x477 + x479  = 0
 c119: x498 - x501 - x506 + x510 + x522 - x525 - x537 + x539  = 0
 c120: x558 - x561 - x566 + x570 + x582 - x585 - x597 + x599  = 0
 c121: - x7 - x12 + x17 - x18 - x47 + x54 + x56  = -1
 c122: - x67 - x72 + x77 - x78 - x107 + x114 + x116  = 1
 c123: - x127 - x132 + x137 - x138 - x167 + x174 + x176  = 1
 c124: - x187 - x192 + x197 - x198 - x227 + x234 + x236  = 0
 c125: - x247 - x252 + x257 - x258 - x287 + x294 + x296  = 0
 c126: - x307 - x312 + x317 - x318 - x347 + x354 + x356  = -1
 c127: - x367 - x372 + x377 - x378 - x407 + x414 + x416  = 0
 c128: - x427 - x432 + x437 - x438 - x467 + x474 + x476  = 0
 c129: - x487 - x492 + x497 - x498 - x527 + x534 + x536  = 0
 c130: - x547 - x552 + x557 - x558 - x587 + x594 + x596  = 0
 c131: - x2 - x5 + x24 + x26 - x29 - x30 + x36 + x41 - x56 + x60  = 0
 c132: - x62 - x65 + x84 + x86 - x89 - x90 + x96 + x101 - x116 + x120  = 0
 c133: - x122 - x125 + x144 + x146 - x149 - x150 + x156 + x161 - x176 + x180
        = 0
 c134: - x182 - x185 + x204 + x206 - x209 - x210 + x216 + x221 - x236 + x240
        = 0
 c135: - x242 - x245 + x264 + x266 - x269 - x270 + x276 + x281 - x296 + x300
        = 0
 c136: - x302 - x305 + x324 + x326 - x329 - x330 + x336 + x341 - x356 + x360
        = 0
 c137: - x362 - x365 + x384 + x386 - x389 - x390 + x396 + x401 - x416 + x420
        = 0
 c138: - x422 - x425 + x444 + x446 - x449 - x450 + x456 + x461 - x476 + x480
        = 1
 c139: - x482 - x485 + x504 + x506 - x509 - x510 + x516 + x521 - x536 + x540
        = 0
 c140: - x542 - x545 + x564 + x566 - x569 - x570 + x576 + x581 - x596 + x600
        = 0
 c141: - x4 - x6 + x11 + x15 + x25 + x39 + x43 - x53  = 0
 c142: - x64 - x66 + x71 + x75 + x85 + x99 + x103 - x113  = 0
 c143: - x124 - x126 + x131 + x135 + x145 + x159 + x163 - x173  = 0
 c144: - x184 - x186 + x191 + x195 + x205 + x219 + x223 - x233  = 0
 c145: - x244 - x246 + x251 + x255 + x265 + x279 + x283 - x293  = 0
 c146: - x304 - x306 + x311 + x315 + x325 + x339 + x343 - x353  = 0
 c147: - x364 - x366 + x371 + x375 + x385 + x399 + x403 - x413  = 1
 c148: - x424 - x426 + x431 + x435 + x445 + x459 + x463 - x473  = -1
 c149: - x484 - x486 + x491 + x495 + x505 + x519 + x523 - x533  = 1
 c150: - x544 - x546 + x551 + x555 + x565 + x579 + x583 - x593  = 0
 c151: 4 x1 + 4 x61 + 4 x121 + 4 x181 + 4 x241 + 4 x301 + 4 x361 + 4 x421
       + 4 x481 + 4 x541 - 5 x601 <= 0
 c152: 4 x2 + 4 x62 + 4 x122 + 4 x182 + 4 x242 + 4 x302 + 4 x362 + 4 x422
       + 4 x482 + 4 x542 - 5 x602 <= 0
 c153: 4 x3 + 4 x63 + 4 x123 + 4 x183 + 4 x243 + 4 x303 + 4 x363 + 4 x423
       + 4 x483 + 4 x543 - 5 x603 <= 0
 c154: 4 x4 + 4 x64 + 4 x124 + 4 x184 + 4 x244 + 4 x304 + 4 x364 + 4 x424
       + 4 x484 + 4 x544 - 5 x604 <= 0
 c155: 4 x5 + 4 x65 + 4 x125 + 4 x185 + 4 x245 + 4 x305 + 4 x365 + 4 x425
       + 4 x485 + 4 x545 - 5 x605 <= 0
 c156: 4 x6 + 4 x66 + 4 x126 + 4 x186 + 4 x246 + 4 x306 + 4 x366 + 4 x426
       + 4 x486 + 4 x546 - 5 x606 <= 0
 c157: 4 x7 + 4 x67 + 4 x127 + 4 x187 + 4 x247 + 4 x307 + 4 x367 + 4 x427
       + 4 x487 + 4 x547 - 5 x607 <= 0
 c158: 4 x8 + 4 x68 + 4 x128 + 4 x188 + 4 x248 + 4 x308 + 4 x368 + 4 x428
       + 4 x488 + 4 x548 - 5 x608 <= 0
 c159: 4 x9 + 4 x69 + 4 x129 + 4 x189 + 4 x249 + 4 x309 + 4 x369 + 4 x429
       + 4 x489 + 4 x549 - 5 x609 <= 0
 c160: 4 x10 + 4 x70 + 4 x130 + 4 x190 + 4 x250 + 4 x310 + 4 x370 + 4 x430
       + 4 x490 + 4 x550 - 5 x610 <= 0
 c161: 4 x11 + 4 x71 + 4 x131 + 4 x191 + 4 x251 + 4 x311 + 4 x371 + 4 x431
       + 4 x491 + 4 x551 - 5 x611 <= 0
 c162: 4 x12 + 4 x72 + 4 x132 + 4 x192 + 4 x252 + 4 x312 + 4 x372 + 4 x432
       + 4 x492 + 4 x552 - 5 x612 <= 0
 c163: 4 x13 + 4 x73 + 4 x133 + 4 x193 + 4 x253 + 4 x313 + 4 x373 + 4 x433
       + 4 x493 + 4 x553 - 5 x613 <= 0
 c164: 4 x14 + 4 x74 + 4 x134 + 4 x194 + 4 x254 + 4 x314 + 4 x374 + 4 x434
       + 4 x494 + 4 x554 - 5 x614 <= 0
 c165: 4 x15 + 4 x75 + 4 x135 + 4 x195 + 4 x255 + 4 x315 + 4 x375 + 4 x435
       + 4 x495 + 4 x555 - 5 x615 <= 0
 c166: 4 x16 + 4 x76 + 4 x136 + 4 x196 + 4 x256 + 4 x316 + 4 x376 + 4 x436
       + 4 x496 + 4 x556 - 5 x616 <= 0
 c167: 4 x17 + 4 x77 + 4 x137 + 4 x197 + 4 x257 + 4 x317 + 4 x377 + 4 x437
       + 4 x497 + 4 x557 - 5 x617 <= 0
 c168: 4 x18 + 4 x78 + 4 x138 + 4 x198 + 4 x258 + 4 x318 + 4 x378 + 4 x438
       + 4 x498 + 4 x558 - 5 x618 <= 0
 c169: 4 x19 + 4 x79 + 4 x139 + 4 x199 + 4 x259 + 4 x319 + 4 x379 + 4 x439
       + 4 x499 + 4 x559 - 5 x619 <= 0
 c170: 4 x20 + 4 x80 + 4 x140 + 4 x200 + 4 x260 + 4 x320 + 4 x380 + 4 x440
       + 4 x500 + 4 x560 - 5 x620 <= 0
 c171: 4 x21 + 4 x81 + 4 x141 + 4 x201 + 4 x261 + 4 x321 + 4 x381 + 4 x441
       + 4 x501 + 4 x561 - 5 x621 <= 0
 c172: 4 x22 + 4 x82 + 4 x142 + 4 x202 + 4 x262 + 4 x322 + 4 x382 + 4 x442
       + 4 x502 + 4 x562 - 5 x622 <= 0
 c173: 4 x23 + 4 x83 + 4 x143 + 4 x203 + 4 x263 + 4 x323 + 4 x383 + 4 x443
       + 4 x503 + 4 x563 - 5 x623 <= 0
 c174: 4 x24 + 4 x84 + 4 x144 + 4 x204 + 4 x264 + 4 x324 + 4 x384 + 4 x444
       + 4 x504 + 4 x564 - 5 x624 <= 0
 c175: 4 x25 + 4 x85 + 4 x145 + 4 x205 + 4 x265 + 4 x325 + 4 x385 + 4 x445
       + 4 x505 + 4 x565 - 5 x625 <= 0
 c176: 4 x26 + 4 x86 + 4 x146 + 4 x206 + 4 x266 + 4 x326 + 4 x386 + 4 x446
       + 4 x506 + 4 x566 - 5 x626 <= 0
 c177: 4 x27 + 4 x87 + 4 x147 + 4 x207 + 4 x267 + 4 x327 + 4 x387 + 4 x447
       + 4 x507 + 4 x567 - 5 x627 <= 0
 c178: 4 x28 + 4 x88 + 4 x148 + 4 x208 + 4 x268 + 4 x328 + 4 x388 + 4 x448
       + 4 x508 + 4 x568 - 5 x628 <= 0
 c179: 4 x29 + 4 x89 + 4 x149 + 4 x209 + 4 x269 + 4 x329 + 4 x389 + 4 x449
       + 4 x509 + 4 x569 - 5 x629 <= 0
 c180: 4 x30 + 4 x90 + 4 x150 + 4 x210 + 4 x270 + 4 x330 + 4 x390 + 4 x450
       + 4 x510 + 4 x570 - 5 x630 <= 0
 c181: 4 x31 + 4 x91 + 4 x151 + 4 x211 + 4 x271 + 4 x331 + 4 x391 + 4 x451
       + 4 x511 + 4 x571 - 5 x631 <= 0
 c182: 4 x32 + 4 x92 + 4 x152 + 4 x212 + 4 x272 + 4 x332 + 4 x392 + 4 x452
       + 4 x512 + 4 x572 - 5 x632 <= 0
 c183: 4 x33 + 4 x93 + 4 x153 + 4 x213 + 4 x273 + 4 x333 + 4 x393 + 4 x453
       + 4 x513 + 4 x573 - 5 x633 <= 0
 c184: 4 x34 + 4 x94 + 4 x154 + 4 x214 + 4 x274 + 4 x334 + 4 x394 + 4 x454
       + 4 x514 + 4 x574 - 5 x634 <= 0
 c185: 4 x35 + 4 x95 + 4 x155 + 4 x215 + 4 x275 + 4 x335 + 4 x395 + 4 x455
       + 4 x515 + 4 x575 - 5 x635 <= 0
 c186: 4 x36 + 4 x96 + 4 x156 + 4 x216 + 4 x276 + 4 x336 + 4 x396 + 4 x456
       + 4 x516 + 4 x576 - 5 x636 <= 0
 c187: 4 x37 + 4 x97 + 4 x157 + 4 x217 + 4 x277 + 4 x337 + 4 x397 + 4 x457
       + 4 x517 + 4 x577 - 5 x637 <= 0
 c188: 4 x38 + 4 x98 + 4 x158 + 4 x218 + 4 x278 + 4 x338 + 4 x398 + 4 x458
       + 4 x518 + 4 x578 - 5 x638 <= 0
 c189: 4 x39 + 4 x99 + 4 x159 + 4 x219 + 4 x279 + 4 x339 + 4 x399 + 4 x459
       + 4 x519 + 4 x579 - 5 x639 <= 0
 c190: 4 x40 + 4 x100 + 4 x160 + 4 x220 + 4 x280 + 4 x340 + 4 x400 + 4 x460
       + 4 x520 + 4 x580 - 5 x640 <= 0
 c191: 4 x41 + 4 x101 + 4 x161 + 4 x221 + 4 x281 + 4 x341 + 4 x401 + 4 x461
       + 4 x521 + 4 x581 - 5 x641 <= 0
 c192: 4 x42 + 4 x102 + 4 x162 + 4 x222 + 4 x282 + 4 x342 + 4 x402 + 4 x462
       + 4 x522 + 4 x582 - 5 x642 <= 0
 c193: 4 x43 + 4 x103 + 4 x163 + 4 x223 + 4 x283 + 4 x343 + 4 x403 + 4 x463
       + 4 x523 + 4 x583 - 5 x643 <= 0
 c194: 4 x44 + 4 x104 + 4 x164 + 4 x224 + 4 x284 + 4 x344 + 4 x404 + 4 x464
       + 4 x524 + 4 x584 - 5 x644 <= 0
 c195: 4 x45 + 4 x105 + 4 x165 + 4 x225 + 4 x285 + 4 x345 + 4 x405 + 4 x465
       + 4 x525 + 4 x585 - 5 x645 <= 0
 c196: 4 x46 + 4 x106 + 4 x166 + 4 x226 + 4 x286 + 4 x346 + 4 x406 + 4 x466
       + 4 x526 + 4 x586 - 5 x646 <= 0
 c197: 4 x47 + 4 x107 + 4 x167 + 4 x227 + 4 x287 + 4 x347 + 4 x407 + 4 x467
       + 4 x527 + 4 x587 - 5 x647 <= 0
 c198: 4 x48 + 4 x108 + 4 x168 + 4 x228 + 4 x288 + 4 x348 + 4 x408 + 4 x468
       + 4 x528 + 4 x588 - 5 x648 <= 0
 c199: 4 x49 + 4 x109 + 4 x169 + 4 x229 + 4 x289 + 4 x349 + 4 x409 + 4 x469
       + 4 x529 + 4 x589 - 5 x649 <= 0
 c200: 4 x50 + 4 x110 + 4 x170 + 4 x230 + 4 x290 + 4 x350 + 4 x410 + 4 x470
       + 4 x530 + 4 x590 - 5 x650 <= 0
 c201: 4 x51 + 4 x111 + 4 x171 + 4 x231 + 4 x291 + 4 x351 + 4 x411 + 4 x471
       + 4 x531 + 4 x591 - 5 x651 <= 0
 c202: 4 x52 + 4 x112 + 4 x172 + 4 x232 + 4 x292 + 4 x352 + 4 x412 + 4 x472
       + 4 x532 + 4 x592 - 5 x652 <= 0
 c203: 4 x53 + 4 x113 + 4 x173 + 4 x233 + 4 x293 + 4 x353 + 4 x413 + 4 x473
       + 4 x533 + 4 x593 - 5 x653 <= 0
 c204: 4 x54 + 4 x114 + 4 x174 + 4 x234 + 4 x294 + 4 x354 + 4 x414 + 4 x474
       + 4 x534 + 4 x594 - 5 x654 <= 0
 c205: 4 x55 + 4 x115 + 4 x175 + 4 x235 + 4 x295 + 4 x355 + 4 x415 + 4 x475
       + 4 x535 + 4 x595 - 5 x655 <= 0
 c206: 4 x56 + 4 x116 + 4 x176 + 4 x236 + 4 x296 + 4 x356 + 4 x416 + 4 x476
       + 4 x536 + 4 x596 - 5 x656 <= 0
 c207: 4 x57 + 4 x117 + 4 x177 + 4 x237 + 4 x297 + 4 x357 + 4 x417 + 4 x477
       + 4 x537 + 4 x597 - 5 x657 <= 0
 c208: 4 x58 + 4 x118 + 4 x178 + 4 x238 + 4 x298 + 4 x358 + 4 x418 + 4 x478
       + 4 x538 + 4 x598 - 5 x658 <= 0
 c209: 4 x59 + 4 x119 + 4 x179 + 4 x239 + 4 x299 + 4 x359 + 4 x419 + 4 x479
       + 4 x539 + 4 x599 - 5 x659 <= 0
 c210: 4 x60 + 4 x120 + 4 x180 + 4 x240 + 4 x300 + 4 x360 + 4 x420 + 4 x480
       + 4 x540 + 4 x600 - 5 x660 <= 0
Bounds
 0 <= x1 <= 1
 0 <= x2 <= 1
 0 <= x3 <= 1
 0 <= x4 <= 1
 0 <= x5 <= 1
 0 <= x6 <= 1
 0 <= x7 <= 1
 0 <= x8 <= 1
 0 <= x9 <= 1
 0 <= x10 <= 1
 0 <= x11 <= 1
 0 <= x12 <= 1
 0 <= x13 <= 1
 0 <= x14 <= 1
 0 <= x15 <= 1
 0 <= x16 <= 1
 0 <= x17 <= 1
 0 <= x18 <= 1
 0 <= x19 <= 1
 0 <= x20 <= 1
 0 <= x21 <= 1
 0 <= x22 <= 1
 0 <= x23 <= 1
 0 <= x24 <= 1
 0 <= x25 <= 1
 0 <= x26 <= 1
 0 <= x27 <= 1
 0 <= x28 <= 1
 0 <= x29 <= 1
 0 <= x30 <= 1
 0 <= x31 <= 1
 0 <= x32 <= 1
 0 <= x33 <= 1
 0 <= x34 <= 1
 0 <= x35 <= 1
 0 <= x36 <= 1
 0 <= x37 <= 1
 0 <= x38 <= 1
 0 <= x39 <= 1
 0 <= x40 <= 1
 0 <= x41 <= 1
 0 <= x42 <= 1
 0 <= x43 <= 1
 0 <= x44 <= 1
 0 <= x45 <= 1
 0 <= x46 <= 1
 0 <= x47 <= 1
 0 <= x48 <= 1
 0 <= x49 <= 1
 0 <= x50 <= 1
 0 <= x51 <= 1
 0 <= x52 <= 1
 0 <= x53 <= 1
 0 <= x54 <= 1
 0 <= x55 <= 1
 0 <= x56 <= 1
 0 <= x57 <= 1
 0 <= x58 <= 1
 0 <= x59 <= 1
 0 <= x60 <= 1
 0 <= x61 <= 1
 0 <= x62 <= 1
 0 <= x63 <= 1
 0 <= x64 <= 1
 0 <= x65 <= 1
 0 <= x66 <= 1
 0 <= x67 <= 1
 0 <= x68 <= 1
 0 <= x69 <= 1
 0 <= x70 <= 1
 0 <= x71 <= 1
 0 <= x72 <= 1
 0 <= x73 <= 1
 0 <= x74 <= 1
 0 <= x75 <= 1
 0 <= x76 <= 1
 0 <= x77 <= 1
 0 <= x78 <= 1
 0 <= x79 <= 1
 0 <= x80 <= 1
 0 <= x81 <= 1
 0 <= x82 <= 1
 0 <= x83 <= 1
 0 <= x84 <= 1
 0 <= x85 <= 1
 0 <= x86 <= 1
 0 <= x87 <= 1
 0 <= x88 <= 1
 0 <= x89 <= 1
 0 <= x90 <= 1
 0 <= x91 <= 1
 0 <= x92 <= 1
 0 <= x93 <= 1
 0 <= x94 <= 1
 0 <= x95 <= 1
 0 <= x96 <= 1
 0 <= x97 <= 1
 0 <= x98 <= 1
 0 <= x99 <= 1
 0 <= x100 <= 1
 0 <= x101 <= 1
 0 <= x102 <= 1
 0 <= x103 <= 1
 0 <= x104 <= 1
 0 <= x105 <= 1
 0 <= x106 <= 1
 0 <= x107 <= 1
 0 <= x108 <= 1
 0 <= x109 <= 1
 0 <= x110 <= 1
 0 <= x111 <= 1
 0 <= x112 <= 1
 0 <= x113 <= 1
 0 <= x114 <= 1
 0 <= x115 <= 1
 0 <= x116 <= 1
 0 <= x117 <= 1
 0 <= x118 <= 1
 0 <= x119 <= 1
 0 <= x120 <= 1
 0 <= x121 <= 1
 0 <= x122 <= 1
 0 <= x123 <= 1
 0 <= x124 <= 1
 0 <= x125 <= 1
 0 <= x126 <= 1
 0 <= x127 <= 1
 0 <= x128 <= 1
 0 <= x129 <= 1
 0 <= x130 <= 1
 0 <= x131 <= 1
 0 <= x132 <= 1
 0 <= x133 <= 1
 0 <= x134 <= 1
 0 <= x135 <= 1
 0 <= x136 <= 1
 0 <= x137 <= 1
 0 <= x138 <= 1
 0 <= x139 <= 1
 0 <= x140 <= 1
 0 <= x141 <= 1
 0 <= x142 <= 1
 0 <= x143 <= 1
 0 <= x144 <= 1
 0 <= x145 <= 1
 0 <= x146 <= 1
 0 <= x147 <= 1
 0 <= x148 <= 1
 0 <= x149 <= 1
 0 <= x150 <= 1
 0 <= x151 <= 1
 0 <= x152 <= 1
 0 <= x153 <= 1
 0 <= x154 <= 1
 0 <= x155 <= 1
 0 <= x156 <= 1
 0 <= x157 <= 1
 0 <= x158 <= 1
 0 <= x159 <= 1
 0 <= x160 <= 1
 0 <= x161 <= 1
 0 <= x162 <= 1
 0 <= x163 <= 1
 0 <= x164 <= 1
 0 <= x165 <= 1
 0 <= x166 <= 1
 0 <= x167 <= 1
 0 <= x168 <= 1
 0 <= x169 <= 1
 0 <= x170 <= 1
 0 <= x171 <= 1
 0 <= x172 <= 1
 0 <= x173 <= 1
 0 <= x174 <= 1
 0 <= x175 <= 1
 0 <= x176 <= 1
 0 <= x177 <= 1
 0 <= x178 <= 1
 0 <= x179 <= 1
 0 <= x180 <= 1
 0 <= x181 <= 1
 0 <= x182 <= 1
 0 <= x183 <= 1
 0 <= x184 <= 1
 0 <= x185 <= 1
 0 <= x186 <= 1
 0 <= x187 <= 1
 0 <= x188 <= 1
 0 <= x189 <= 1
 0 <= x190 <= 1
 0 <= x191 <= 1
 0 <= x192 <= 1
 0 <= x193 <= 1
 0 <= x194 <= 1
 0 <= x195 <= 1
 0 <= x196 <= 1
 0 <= x197 <= 1
 0 <= x198 <= 1
 0 <= x199 <= 1
 0 <= x200 <= 1
 0 <= x201 <= 1
 0 <= x202 <= 1
 0 <= x203 <= 1
 0 <= x204 <= 1
 0 <= x205 <= 1
 0 <= x206 <= 1
 0 <= x207 <= 1
 0 <= x208 <= 1
 0 <= x209 <= 1
 0 <= x210 <= 1
 0 <= x211 <= 1
 0 <= x212 <= 1
 0 <= x213 <= 1
 0 <= x214 <= 1
 0 <= x215 <= 1
 0 <= x216 <= 1
 0 <= x217 <= 1
 0 <= x218 <= 1
 0 <= x219 <= 1
 0 <= x220 <= 1
 0 <= x221 <= 1
 0 <= x222 <= 1
 0 <= x223 <= 1
 0 <= x224 <= 1
 0 <= x225 <= 1
 0 <= x226 <= 1
 0 <= x227 <= 1
 0 <= x228 <= 1
 0 <= x229 <= 1
 0 <= x230 <= 1
 0 <= x231 <= 1
 0 <= x232 <= 1
 0 <= x233 <= 1
 0 <= x234 <= 1
 0 <= x235 <= 1
 0 <= x236 <= 1
 0 <= x237 <= 1
 0 <= x238 <= 1
 0 <= x239 <= 1
 0 <= x240 <= 1
 0 <= x241 <= 1
 0 <= x242 <= 1
 0 <= x243 <= 1
 0 <= x244 <= 1
 0 <= x245 <= 1
 0 <= x246 <= 1
 0 <= x247 <= 1
 0 <= x248 <= 1
 0 <= x249 <= 1
 0 <= x250 <= 1
 0 <= x251 <= 1
 0 <= x252 <= 1
 0 <= x253 <= 1
 0 <= x254 <= 1
 0 <= x255 <= 1
 0 <= x256 <= 1
 0 <= x257 <= 1
 0 <= x258 <= 1
 0 <= x259 <= 1
 0 <= x260 <= 1
 0 <= x261 <= 1
 0 <= x262 <= 1
 0 <= x263 <= 1
 0 <= x264 <= 1
 0 <= x265 <= 1
 0 <= x266 <= 1
 0 <= x267 <= 1
 0 <= x268 <= 1
 0 <= x269 <= 1
 0 <= x270 <= 1
 0 <= x271 <= 1
 0 <= x272 <= 1
 0 <= x273 <= 1
 0 <= x274 <= 1
 0 <= x275 <= 1
 0 <= x276 <= 1
 0 <= x277 <= 1
 0 <= x278 <= 1
 0 <= x279 <= 1
 0 <= x280 <= 1
 0 <= x281 <= 1
 0 <= x282 <= 1
 0 <= x283 <= 1
 0 <= x284 <= 1
 0 <= x285 <= 1
 0 <= x286 <= 1
 0 <= x287 <= 1
 0 <= x288 <= 1
 0 <= x289 <= 1
 0 <= x290 <= 1
 0 <= x291 <= 1
 0 <= x292 <= 1
 0 <= x293 <= 1
 0 <= x294 <= 1
 0 <= x295 <= 1
 0 <= x296 <= 1
 0 <= x297 <= 1
 0 <= x298 <= 1
 0 <= x299 <= 1
 0 <= x300 <= 1
 0 <= x301 <= 1
 0 <= x302 <= 1
 0 <= x303 <= 1
 0 <= x304 <= 1
 0 <= x305 <= 1
 0 <= x306 <= 1
 0 <= x307 <= 1
 0 <= x308 <= 1
 0 <= x309 <= 1
 0 <= x310 <= 1
 0 <= x311 <= 1
 0 <= x312 <= 1
 0 <= x313 <= 1
 0 <= x314 <= 1
 0 <= x315 <= 1
 0 <= x316 <= 1
 0 <= x317 <= 1
 0 <= x318 <= 1
 0 <= x319 <= 1
 0 <= x320 <= 1
 0 <= x321 <= 1
 0 <= x322 <= 1
 0 <= x323 <= 1
 0 <= x324 <= 1
 0 <= x325 <= 1
 0 <= x326 <= 1
 0 <= x327 <= 1
 0 <= x328 <= 1
 0 <= x329 <= 1
 0 <= x330 <= 1
 0 <= x331 <= 1
 0 <= x332 <= 1
 0 <= x333 <= 1
 0 <= x334 <= 1
 0 <= x335 <= 1
 0 <= x336 <= 1
 0 <= x337 <= 1
 0 <= x338 <= 1
 0 <= x339 <= 1
 0 <= x340 <= 1
 0 <= x341 <= 1
 0 <= x342 <= 1
 0 <= x343 <= 1
 0 <= x344 <= 1
 0 <= x345 <= 1
 0 <= x346 <= 1
 0 <= x347 <= 1
 0 <= x348 <= 1
 0 <= x349 <= 1
 0 <= x350 <= 1
 0 <= x351 <= 1
 0 <= x352 <= 1
 0 <= x353 <= 1
 0 <= x354 <= 1
 0 <= x355 <= 1
 0 <= x356 <= 1
 0 <= x357 <= 1
 0 <= x358 <= 1
 0 <= x359 <= 1
 0 <= x360 <= 1
 0 <= x361 <= 1
 0 <= x362 <= 1
 0 <= x363 <= 1
 0 <= x364 <= 1
 0 <= x365 <= 1
 0 <= x366 <= 1
 0 <= x367 <= 1
 0 <= x368 <= 1
 0 <= x369 <= 1
 0 <= x370 <= 1
 0 <= x371 <= 1
 0 <= x372 <= 1
 0 <= x373 <= 1
 0 <= x374 <= 1
 0 <= x375 <= 1
 0 <= x376 <= 1
 0 <= x377 <= 1
 0 <= x378 <= 1
 0 <= x379 <= 1
 0 <= x380 <= 1
 0 <= x381 <= 1
 0 <= x382 <= 1
 0 <= x383 <= 1
 0 <= x384 <= 1
 0 <= x385 <= 1
 0 <= x386 <= 1
 0 <= x387 <= 1
 0 <= x388 <= 1
 0 <= x389 <= 1
 0 <= x390 <= 1
 0 <= x391 <= 1
 0 <= x392 <= 1
 0 <= x393 <= 1
 0 <= x394 <= 1
 0 <= x395 <= 1
 0 <= x396 <= 1
 0 <= x397 <= 1
 0 <= x398 <= 1
 0 <= x399 <= 1
 0 <= x400 <= 1
 0 <= x401 <= 1
 0 <= x402 <= 1
 0 <= x403 <= 1
 0 <= x404 <= 1
 0 <= x405 <= 1
 0 <= x406 <= 1
 0 <= x407 <= 1
 0 <= x408 <= 1
 0 <= x409 <= 1
 0 <= x410 <= 1
 0 <= x411 <= 1
 0 <= x412 <= 1
 0 <= x413 <= 1
 0 <= x414 <= 1
 0 <= x415 <= 1
 0 <= x416 <= 1
 0 <= x417 <= 1
 0 <= x418 <= 1
 0 <= x419 <= 1
 0 <= x420 <= 1
 0 <= x421 <= 1
 0 <= x422 <= 1
 0 <= x423 <= 1
 0 <= x424 <= 1
 0 <= x425 <= 1
 0 <= x426 <= 1
 0 <= x427 <= 1
 0 <= x428 <= 1
 0 <= x429 <= 1
 0 <= x430 <= 1
 0 <= x431 <= 1
 0 <= x432 <= 1
 0 <= x433 <= 1
 0 <= x434 <= 1
 0 <= x435 <= 1
 0 <= x436 <= 1
 0 <= x437 <= 1
 0 <= x438 <= 1
 0 <= x439 <= 1
 0 <= x440 <= 1
 0 <= x441 <= 1
 0 <= x442 <= 1
 0 <= x443 <= 1
 0 <= x444 <= 1
 0 <= x445 <= 1
 0 <= x446 <= 1
 0 <= x447 <= 1
 0 <= x448 <= 1
 0 <= x449 <= 1
 0 <= x450 <= 1
 0 <= x451 <= 1
 0 <= x452 <= 1
 0 <= x453 <= 1
 0 <= x454 <= 1
 0 <= x455 <= 1
 0 <= x456 <= 1
 0 <= x457 <= 1
 0 <= x458 <= 1
 0 <= x459 <= 1
 0 <= x460 <= 1
 0 <= x461 <= 1
 0 <= x462 <= 1
 0 <= x463 <= 1
 0 <= x464 <= 1
 0 <= x465 <= 1
 0 <= x466 <= 1
 0 <= x467 <= 1
 0 <= x468 <= 1
 0 <= x469 <= 1
 0 <= x470 <= 1
 0 <= x471 <= 1
 0 <= x472 <= 1
 0 <= x473 <= 1
 0 <= x474 <= 1
 0 <= x475 <= 1
 0 <= x476 <= 1
 0 <= x477 <= 1
 0 <= x478 <= 1
 0 <= x479 <= 1
 0 <= x480 <= 1
 0 <= x481 <= 1
 0 <= x482 <= 1
 0 <= x483 <= 1
 0 <= x484 <= 1
 0 <= x485 <= 1
 0 <= x486 <= 1
 0 <= x487 <= 1
 0 <= x488 <= 1
 0 <= x489 <= 1
 0 <= x490 <= 1
 0 <= x491 <= 1
 0 <= x492 <= 1
 0 <= x493 <= 1
 0 <= x494 <= 1
 0 <= x495 <= 1
 0 <= x496 <= 1
 0 <= x497 <= 1
 0 <= x498 <= 1
 0 <= x499 <= 1
 0 <= x500 <= 1
 0 <= x501 <= 1
 0 <= x502 <= 1
 0 <= x503 <= 1
 0 <= x504 <= 1
 0 <= x505 <= 1
 0 <= x506 <= 1
 0 <= x507 <= 1
 0 <= x508 <= 1
 0 <= x509 <= 1
 0 <= x510 <= 1
 0 <= x511 <= 1
 0 <= x512 <= 1
 0 <= x513 <= 1
 0 <= x514 <= 1
 0 <= x515 <= 1
 0 <= x516 <= 1
 0 <= x517 <= 1
 0 <= x518 <= 1
 0 <= x519 <= 1
 0 <= x520 <= 1
 0 <= x521 <= 1
 0 <= x522 <= 1
 0 <= x523 <= 1
 0 <= x524 <= 1
 0 <= x525 <= 1
 0 <= x526 <= 1
 0 <= x527 <= 1
 0 <= x528 <= 1
 0 <= x529 <= 1
 0 <= x530 <= 1
 0 <= x531 <= 1
 0 <= x532 <= 1
 0 <= x533 <= 1
 0 <= x534 <= 1
 0 <= x535 <= 1
 0 <= x536 <= 1
 0 <= x537 <= 1
 0 <= x538 <= 1
 0 <= x539 <= 1
 0 <= x540 <= 1
 0 <= x541 <= 1
 0 <= x542 <= 1
 0 <= x543 <= 1
 0 <= x544 <= 1
 0 <= x545 <= 1
 0 <= x546 <= 1
 0 <= x547 <= 1
 0 <= x548 <= 1
 0 <= x549 <= 1
 0 <= x550 <= 1
 0 <= x551 <= 1
 0 <= x552 <= 1
 0 <= x553 <= 1
 0 <= x554 <= 1
 0 <= x555 <= 1
 0 <= x556 <= 1
 0 <= x557 <= 1
 0 <= x558 <= 1
 0 <= x559 <= 1
 0 <= x560 <= 1
 0 <= x561 <= 1
 0 <= x562 <= 1
 0 <= x563 <= 1
 0 <= x564 <= 1
 0 <= x565 <= 1
 0 <= x566 <= 1
 0 <= x567 <= 1
 0 <= x568 <= 1
 0 <= x569 <= 1
 0 <= x570 <= 1
 0 <= x571 <= 1
 0 <= x572 <= 1
 0 <= x573 <= 1
 0 <= x574 <= 1
 0 <= x575 <= 1
 0 <= x576 <= 1
 0 <= x577 <= 1
 0 <= x578 <= 1
 0 <= x579 <= 1
 0 <= x580 <= 1
 0 <= x581 <= 1
 0 <= x582 <= 1
 0 <= x583 <= 1
 0 <= x584 <= 1
 0 <= x585 <= 1
 0 <= x586 <= 1
 0 <= x587 <= 1
 0 <= x588 <= 1
 0 <= x589 <= 1
 0 <= x590 <= 1
 0 <= x591 <= 1
 0 <= x592 <= 1
 0 <= x593 <= 1
 0 <= x594 <= 1
 0 <= x595 <= 1
 0 <= x596 <= 1
 0 <= x597 <= 1
 0 <= x598 <= 1
 0 <= x599 <= 1
 0 <= x600 <= 1
 0 <= x601 <= 1
 0 <= x602 <= 1
 0 <= x603 <= 1
 0 <= x604 <= 1
 0 <= x605 <= 1
 0 <= x606 <= 1
 0 <= x607 <= 1
 0 <= x608 <= 1
 0 <= x609 <= 1
 0 <= x610 <= 1
 0 <= x611 <= 1
 0 <= x612 <= 1
 0 <= x613 <= 1
 0 <= x614 <= 1
 0 <= x615 <= 1
 0 <= x616 <= 1
 0 <= x617 <= 1
 0 <= x618 <= 1
 0 <= x619 <= 1
 0 <= x620 <= 1
 0 <= x621 <= 1
 0 <= x622 <= 1
 0 <= x623 <= 1
 0 <= x624 <= 1
 0 <= x625 <= 1
 0 <= x626 <= 1
 0 <= x627 <= 1
 0 <= x628 <= 1
 0 <= x629 <= 1
 0 <= x630 <= 1
 0 <= x631 <= 1
 0 <= x632 <= 1
 0 <= x633 <= 1
 0 <= x634 <= 1
 0 <= x635 <= 1
 0 <= x636 <= 1
 0 <= x637 <= 1
 0 <= x638 <= 1
 0 <= x639 <= 1
 0 <= x640 <= 1
 0 <= x641 <= 1
 0 <= x642 <= 1
 0 <= x643 <= 1
 0 <= x644 <= 1
 0 <= x645 <= 1
 0 <= x646 <= 1
 0 <= x647 <= 1
 0 <= x648 <= 1
 0 <= x649 <= 1
 0 <= x650 <= 1
 0 <= x651 <= 1
 0 <= x652 <= 1
 0 <= x653 <= 1
 0 <= x654 <= 1
 0 <= x655 <= 1
 0 <= x656 <= 1
 0 <= x657 <= 1
 0 <= x658 <= 1
 0 <= x659 <= 1
 0 <= x660 <= 1
Binaries
 x601  x602  x603  x604  x605  x606  x607  x608  x609  x610  x611  x612  x613 
 x614  x615  x616  x617  x618  x619  x620  x621  x622  x623  x624  x625  x626 
 x627  x628  x629  x630  x631  x632  x633  x634  x635  x636  x637  x638  x639 
 x640  x641  x642  x643  x644  x645  x646  x647  x648  x649  x650  x651  x652 
 x653  x654  x655  x656  x657  x658  x659  x660 
End
